Route #1: 20 41 22 15
Route #2: 86 9 92
Route #3: 5 12 58
Route #4: 89 98 99 62 71
Route #5: 8 17
Route #6: 25 65 78 42 28
Route #7: 4 13 74
Route #8: 76 55 16 69
Route #9: 34 64 96 48 26 47 38
Route #10: 24 95 73 53 33 32
Route #11: 31 46 35
Route #12: 19 97 27
Route #13: 52 91 50
Route #14: 93 75
Route #15: 68 90 84 66
Route #16: 14 49 6 37 87
Route #17: 59 60 82
Route #18: 21 56 94 80
Route #19: 39 10 18
Route #20: 30 85 11 79
Route #21: 81 51 83
Route #22: 3 77 63
Route #23: 44 67 88 40
Route #24: 57 72 36 29 43 45 2 7
Route #25: 23 61 100
Route #26: 54 70 1
Cost 27591.0000
Time 16.0004